p edge 199 888
e 1 68
e 1 69
e 1 70
e 1 71
e 1 72
e 1 73
e 1 74
e 1 75
e 1 76
e 1 77
e 1 78
e 1 79
e 1 80
e 1 81
e 1 82
e 1 83
e 1 84
e 1 85
e 2 14
e 2 15
e 2 78
e 2 85
e 2 117
e 2 123
e 2 170
e 2 172
e 3 14
e 3 19
e 3 68
e 3 84
e 3 120
e 3 124
e 3 170
e 3 175
e 4 15
e 4 18
e 4 69
e 4 80
e 4 121
e 4 127
e 4 172
e 4 174
e 5 16
e 5 19
e 5 70
e 5 81
e 5 122
e 5 126
e 5 173
e 5 175
e 6 17
e 6 18
e 6 71
e 6 82
e 6 116
e 6 125
e 6 171
e 6 174
e 7 16
e 7 17
e 7 79
e 7 83
e 7 118
e 7 119
e 7 171
e 7 173
e 8 81
e 8 82
e 8 96
e 8 103
e 8 130
e 8 131
e 8 171
e 8 173
e 9 71
e 9 78
e 9 93
e 9 99
e 9 129
e 9 132
e 9 172
e 9 174
e 10 68
e 10 79
e 10 92
e 10 100
e 10 130
e 10 133
e 10 173
e 10 175
e 11 69
e 11 83
e 11 95
e 11 101
e 11 131
e 11 132
e 11 171
e 11 174
e 12 70
e 12 85
e 12 94
e 12 98
e 12 128
e 12 133
e 12 170
e 12 175
e 13 80
e 13 84
e 13 97
e 13 102
e 13 128
e 13 129
e 13 170
e 13 172
e 14 22
e 14 33
e 14 38
e 14 47
e 14 68
e 14 78
e 14 97
e 14 98
e 14 107
e 14 114
e 14 120
e 14 123
e 14 128
e 15 33
e 15 34
e 15 44
e 15 49
e 15 69
e 15 85
e 15 99
e 15 102
e 15 106
e 15 109
e 15 117
e 15 121
e 15 129
e 16 35
e 16 37
e 16 40
e 16 48
e 16 70
e 16 83
e 16 100
e 16 103
e 16 105
e 16 108
e 16 118
e 16 122
e 16 130
e 17 36
e 17 37
e 17 43
e 17 46
e 17 71
e 17 79
e 17 96
e 17 101
e 17 104
e 17 115
e 17 116
e 17 119
e 17 131
e 18 34
e 18 36
e 18 42
e 18 45
e 18 80
e 18 82
e 18 93
e 18 95
e 18 111
e 18 113
e 18 125
e 18 127
e 18 132
e 19 22
e 19 35
e 19 39
e 19 41
e 19 81
e 19 84
e 19 92
e 19 94
e 19 110
e 19 112
e 19 124
e 19 126
e 19 133
e 20 25
e 20 29
e 20 40
e 20 65
e 20 73
e 20 141
e 21 24
e 21 30
e 21 44
e 21 66
e 21 76
e 21 145
e 22 34
e 22 37
e 22 38
e 22 41
e 22 63
e 22 67
e 22 78
e 22 81
e 22 86
e 22 87
e 22 105
e 22 109
e 22 131
e 22 132
e 22 138
e 22 139
e 23 26
e 23 31
e 23 49
e 23 60
e 23 77
e 23 137
e 24 30
e 24 46
e 24 62
e 24 77
e 24 135
e 25 29
e 25 47
e 25 56
e 25 74
e 25 136
e 26 31
e 26 43
e 26 64
e 26 75
e 26 139
e 27 28
e 27 32
e 27 38
e 27 67
e 27 72
e 27 143
e 28 32
e 28 48
e 28 58
e 28 74
e 28 134
e 29 42
e 29 57
e 29 72
e 29 138
e 30 41
e 30 63
e 30 75
e 30 142
e 31 39
e 31 61
e 31 76
e 31 140
e 32 45
e 32 59
e 32 73
e 32 144
e 33 35
e 33 36
e 33 47
e 33 49
e 33 56
e 33 60
e 33 68
e 33 69
e 33 89
e 33 90
e 33 110
e 33 111
e 33 130
e 33 131
e 33 134
e 33 135
e 34 37
e 34 44
e 34 45
e 34 59
e 34 66
e 34 82
e 34 85
e 34 86
e 34 88
e 34 104
e 34 114
e 34 130
e 34 133
e 34 140
e 34 141
e 35 36
e 35 39
e 35 40
e 35 61
e 35 65
e 35 83
e 35 84
e 35 90
e 35 91
e 35 107
e 35 115
e 35 129
e 35 132
e 35 144
e 35 145
e 36 42
e 36 43
e 36 57
e 36 64
e 36 79
e 36 80
e 36 89
e 36 91
e 36 106
e 36 108
e 36 128
e 36 133
e 36 142
e 36 143
e 37 46
e 37 48
e 37 58
e 37 62
e 37 70
e 37 71
e 37 87
e 37 88
e 37 112
e 37 113
e 37 128
e 37 129
e 37 136
e 37 137
e 38 50
e 38 70
e 38 73
e 38 98
e 38 105
e 38 124
e 38 134
e 38 140
e 38 151
e 39 52
e 39 77
e 39 79
e 39 92
e 39 115
e 39 122
e 39 134
e 39 139
e 39 147
e 40 52
e 40 68
e 40 72
e 40 100
e 40 107
e 40 126
e 40 136
e 40 142
e 40 150
e 41 50
e 41 77
e 41 85
e 41 94
e 41 109
e 41 120
e 41 136
e 41 145
e 41 149
e 42 51
e 42 74
e 42 83
e 42 95
e 42 108
e 42 116
e 42 135
e 42 141
e 42 146
e 43 51
e 43 69
e 43 76
e 43 101
e 43 106
e 43 125
e 43 137
e 43 144
e 43 153
e 44 53
e 44 71
e 44 75
e 44 99
e 44 104
e 44 127
e 44 135
e 44 138
e 44 152
e 45 53
e 45 74
e 45 78
e 45 93
e 45 114
e 45 121
e 45 137
e 45 143
e 45 148
e 46 54
e 46 76
e 46 81
e 46 96
e 46 112
e 46 118
e 46 141
e 46 142
e 46 157
e 47 55
e 47 73
e 47 80
e 47 97
e 47 111
e 47 117
e 47 138
e 47 145
e 47 155
e 48 54
e 48 72
e 48 82
e 48 103
e 48 113
e 48 119
e 48 139
e 48 144
e 48 154
e 49 55
e 49 75
e 49 84
e 49 102
e 49 110
e 49 123
e 49 140
e 49 143
e 49 156
e 50 120
e 50 124
e 50 150
e 50 156
e 51 116
e 51 125
e 51 152
e 51 154
e 52 122
e 52 126
e 52 151
e 52 157
e 53 121
e 53 127
e 53 153
e 53 155
e 54 118
e 54 119
e 54 146
e 54 147
e 55 117
e 55 123
e 55 148
e 55 149
e 56 112
e 56 169
e 57 109
e 57 160
e 58 110
e 58 162
e 59 115
e 59 158
e 60 113
e 60 166
e 61 114
e 61 161
e 62 111
e 62 168
e 63 108
e 63 159
e 64 105
e 64 167
e 65 104
e 65 164
e 66 107
e 66 165
e 67 106
e 67 163
e 68 81
e 68 85
e 68 130
e 68 142
e 68 151
e 68 156
e 68 167
e 68 175
e 68 187
e 68 188
e 69 78
e 69 82
e 69 131
e 69 144
e 69 152
e 69 155
e 69 164
e 69 174
e 69 183
e 69 189
e 70 79
e 70 84
e 70 128
e 70 140
e 70 150
e 70 157
e 70 165
e 70 175
e 70 180
e 70 190
e 71 80
e 71 83
e 71 129
e 71 138
e 71 153
e 71 154
e 71 163
e 71 174
e 71 186
e 71 191
e 72 76
e 72 77
e 72 136
e 72 144
e 72 160
e 72 163
e 72 178
e 72 184
e 73 75
e 73 77
e 73 134
e 73 138
e 73 158
e 73 164
e 73 176
e 73 181
e 74 75
e 74 76
e 74 141
e 74 143
e 74 162
e 74 169
e 74 180
e 74 187
e 75 135
e 75 140
e 75 159
e 75 167
e 75 177
e 75 185
e 76 137
e 76 142
e 76 161
e 76 165
e 76 179
e 76 182
e 77 139
e 77 145
e 77 166
e 77 168
e 77 183
e 77 186
e 78 84
e 78 132
e 78 137
e 78 149
e 78 155
e 78 168
e 78 172
e 78 184
e 78 192
e 79 82
e 79 133
e 79 134
e 79 146
e 79 157
e 79 169
e 79 173
e 79 185
e 79 193
e 80 85
e 80 128
e 80 145
e 80 148
e 80 153
e 80 161
e 80 172
e 80 178
e 80 195
e 81 83
e 81 131
e 81 141
e 81 147
e 81 151
e 81 158
e 81 173
e 81 177
e 81 196
e 82 130
e 82 139
e 82 146
e 82 152
e 82 159
e 82 171
e 82 176
e 82 197
e 83 132
e 83 135
e 83 147
e 83 154
e 83 166
e 83 171
e 83 181
e 83 199
e 84 129
e 84 143
e 84 149
e 84 150
e 84 160
e 84 170
e 84 179
e 84 194
e 85 133
e 85 136
e 85 148
e 85 156
e 85 162
e 85 170
e 85 182
e 85 198
e 86 110
e 86 111
e 86 176
e 86 177
e 87 107
e 87 115
e 87 184
e 87 186
e 88 106
e 88 108
e 88 180
e 88 182
e 89 104
e 89 114
e 89 185
e 89 187
e 90 105
e 90 109
e 90 181
e 90 183
e 91 112
e 91 113
e 91 178
e 91 179
e 92 100
e 92 105
e 92 124
e 92 196
e 93 99
e 93 106
e 93 125
e 93 195
e 94 98
e 94 107
e 94 126
e 94 194
e 95 101
e 95 104
e 95 127
e 95 197
e 96 103
e 96 108
e 96 116
e 96 193
e 97 102
e 97 109
e 97 120
e 97 192
e 98 110
e 98 123
e 98 188
e 99 111
e 99 117
e 99 189
e 100 112
e 100 118
e 100 190
e 101 113
e 101 119
e 101 191
e 102 114
e 102 121
e 102 198
e 103 115
e 103 122
e 103 199
e 104 131
e 104 141
e 104 185
e 104 197
e 105 130
e 105 139
e 105 181
e 105 196
e 106 129
e 106 143
e 106 182
e 106 195
e 107 128
e 107 145
e 107 184
e 107 194
e 108 130
e 108 142
e 108 180
e 108 193
e 109 129
e 109 138
e 109 183
e 109 192
e 110 133
e 110 134
e 110 177
e 110 188
e 111 132
e 111 135
e 111 176
e 111 189
e 112 133
e 112 136
e 112 179
e 112 190
e 113 132
e 113 137
e 113 178
e 113 191
e 114 128
e 114 140
e 114 187
e 114 198
e 115 131
e 115 144
e 115 186
e 115 199
e 116 146
e 116 199
e 117 155
e 117 195
e 118 157
e 118 196
e 119 154
e 119 197
e 120 149
e 120 198
e 121 148
e 121 192
e 122 147
e 122 193
e 123 156
e 123 194
e 124 151
e 124 190
e 125 153
e 125 189
e 126 150
e 126 188
e 127 152
e 127 191
e 128 137
e 128 142
e 129 136
e 129 144
e 130 135
e 130 140
e 131 134
e 131 138
e 132 139
e 132 145
e 133 141
e 133 143
e 134 151
e 134 176
e 134 185
e 135 152
e 135 177
e 135 181
e 136 150
e 136 178
e 136 182
e 137 153
e 137 179
e 137 184
e 138 155
e 138 181
e 138 186
e 139 147
e 139 176
e 139 183
e 140 156
e 140 180
e 140 185
e 141 146
e 141 177
e 141 187
e 142 157
e 142 182
e 142 187
e 143 148
e 143 179
e 143 180
e 144 154
e 144 183
e 144 184
e 145 149
e 145 178
e 145 186
e 146 147
e 146 193
e 146 197
e 147 196
e 147 199
e 148 149
e 148 195
e 148 198
e 149 192
e 149 194
e 150 156
e 150 190
e 150 194
e 151 157
e 151 188
e 151 196
e 152 154
e 152 189
e 152 197
e 153 155
e 153 191
e 153 195
e 154 191
e 154 199
e 155 189
e 155 192
e 156 188
e 156 198
e 157 190
e 157 193
e 158 177
e 158 181
e 159 176
e 159 185
e 160 179
e 160 184
e 161 178
e 161 182
e 162 182
e 162 187
e 163 178
e 163 186
e 164 176
e 164 183
e 165 179
e 165 180
e 166 181
e 166 186
e 167 177
e 167 187
e 168 183
e 168 184
e 169 180
e 169 185
